unsat
( c0
  c1000
  c1001
  c1003
  c1004
  c1006
  c1008
  c1012
  c1015
  c1019
  c1020
  c1022
  c1024
  c1025
  c1026
  c1029
  c1031
  c1034
  c1035
  c1037
  c1039
  c1040
  c1041
  c1044
  c1046
  c1050
  c1052
  c1055
  c1056
  c1062
  c1064
  c1069
  c111
  c113
  c115
  c116
  c12
  c123
  c127
  c13
  c131
  c132
  c139
  c140
  c146
  c147
  c149
  c169
  c172
  c177
  c181
  c184
  c186
  c196
  c2
  c200
  c202
  c204
  c205
  c212
  c213
  c216
  c219
  c220
  c221
  c223
  c224
  c228
  c230
  c231
  c235
  c236
  c237
  c238
  c24
  c240
  c25
  c255
  c258
  c261
  c267
  c269
  c27
  c270
  c273
  c275
  c276
  c278
  c28
  c285
  c286
  c287
  c288
  c289
  c291
  c293
  c294
  c295
  c296
  c301
  c302
  c308
  c312
  c313
  c317
  c319
  c320
  c321
  c324
  c325
  c326
  c327
  c329
  c347
  c350
  c353
  c355
  c356
  c362
  c365
  c366
  c367
  c374
  c376
  c377
  c378
  c380
  c381
  c382
  c383
  c385
  c390
  c391
  c393
  c394
  c397
  c399
  c406
  c407
  c408
  c409
  c413
  c414
  c415
  c416
  c418
  c436
  c439
  c442
  c444
  c445
  c447
  c448
  c451
  c453
  c463
  c464
  c465
  c466
  c469
  c470
  c471
  c472
  c474
  c477
  c479
  c480
  c482
  c483
  c486
  c488
  c489
  c490
  c491
  c495
  c496
  c497
  c498
  c502
  c503
  c504
  c505
  c506
  c507
  c522
  c525
  c528
  c531
  c533
  c534
  c536
  c537
  c540
  c542
  c543
  c544
  c545
  c552
  c553
  c554
  c555
  c558
  c559
  c560
  c561
  c562
  c563
  c568
  c569
  c575
  c578
  c579
  c580
  c584
  c586
  c587
  c591
  c592
  c593
  c594
  c596
  c6
  c60
  c614
  c617
  c620
  c622
  c623
  c629
  c632
  c633
  c634
  c641
  c643
  c644
  c647
  c648
  c649
  c650
  c652
  c657
  c658
  c660
  c661
  c664
  c666
  c673
  c674
  c675
  c676
  c680
  c681
  c682
  c683
  c685
  c7
  c703
  c706
  c709
  c711
  c712
  c714
  c715
  c718
  c720
  c730
  c731
  c732
  c733
  c736
  c737
  c738
  c739
  c741
  c744
  c746
  c747
  c749
  c750
  c753
  c755
  c756
  c757
  c758
  c762
  c763
  c764
  c765
  c769
  c770
  c771
  c772
  c773
  c774
  c789
  c792
  c795
  c798
  c8
  c80
  c800
  c801
  c803
  c804
  c807
  c809
  c810
  c811
  c812
  c819
  c820
  c821
  c822
  c825
  c826
  c827
  c828
  c829
  c83
  c830
  c835
  c836
  c842
  c845
  c846
  c847
  c851
  c853
  c854
  c858
  c859
  c860
  c861
  c863
  c881
  c884
  c887
  c89
  c890
  c896
  c899
  c900
  c901
  c908
  c910
  c911
  c914
  c915
  c916
  c917
  c919
  c925
  c931
  c942
  c943
  c947
  c948
  c95
  c950
  c970
  c976
  c979
  c985
  c999 )
